\Problem name: 

Minimize
obj: x43
Subject To
cons0:  - x29 + x30 = 0.10000
cons1:  - x30 + x31 >= 0.00100
cons2:  - x31 + x32 = 5
cons3:  - x29 + x32 >= 0.00100
cons4:  - x30 + x32 >= 0.00100
cons5:  - x32 + x33 >= 0.00100
cons6:  - x33 + x34 = 0.20000
cons7:  - x32 + x35 >= 0.00100
cons8:  - x33 + x35 >= 0.00100
cons9:  - x34 + x35 >= 0
cons10:  - x35 + x36 = 0.10000
cons11:  - x36 + x37 >= 0.00100
cons12:  - x37 + x38 = 5
cons13:  - x35 + x38 >= 0.00100
cons14:  - x36 + x38 >= 0.00100
cons15:  - x33 + x39 >= 0.00100
cons16:  - x34 + x39 >= 0.00100
cons17:  - x38 + x39 >= 0.00100
cons18:  - x39 + x40 = 0.20000
cons19:  - x33 + x40 >= 0.00100
cons20:  - x40 + x41 >= 0.00100
cons21:  - x41 + x42 <= 99.50000
cons22:  100 x41 -100 x42 + x43 = 50
Bounds
 50 <= x0 <= 50
 0 <= x1 <= 0
 0 <= x2 <= 0
 0 <= x3 <= 0
 0 <= x4 <= 0
 0 <= x5 <= 0
 0 <= x6 <= 0
 0 <= x7 <= 0
 0 <= x8 <= 0
 0 <= x9 <= 0
 0 <= x10 <= 0
 0 <= x11 <= 0
 0 <= x12 <= 0
 0 <= x13 <= 0
 0 <= x14 <= 0
 0 <= x15 <= 0
 0 <= x16 <= 0
 0 <= x17 <= 0
 0 <= x18 <= 0
 0 <= x19 <= 0
 0 <= x20 <= 0
 0 <= x21 <= 0
 0 <= x22 <= 0
 0 <= x23 <= 0
 0 <= x24 <= 0
 0 <= x25 <= 0
 0 <= x26 <= 0
 0 <= x27 <= 0
 0 <= x28 <= 0
 0.10000 <= x30
 0.10100 <= x31
 5.10000 <= x32
 5.10200 <= x33
 5.30200 <= x34
 5.30200 <= x35
 5.40200 <= x36
 5.40300 <= x37
 10.40300 <= x38
 10.40300 <= x39
 10.60300 <= x40
 10.60400 <= x41
 10.60500 <= x42
 x43 Free
End
